NAME: random_40_5
TYPE: TSP
COMMENT: random_40_5
DIMENSION: 40
EDGE_WEIGHT_TYPE: EUC_2D
NODE_COORD_SECTION
1 255 125
2 261 457
3 264 256
4 11 108
5 68 171
6 393 176
7 185 234
8 322 122
9 490 323
10 319 107
11 243 205
12 446 101
13 201 2
14 141 66
15 238 368
16 158 89
17 107 488
18 179 144
19 412 164
20 107 0
21 188 460
22 337 154
23 392 189
24 148 206
25 465 340
26 334 473
27 402 477
28 66 387
29 430 85
30 374 269
31 283 95
32 22 465
33 184 481
34 22 167
35 499 463
36 276 262
37 82 184
38 101 253
39 335 409
40 69 482
